(set-logic ALL)
(declare-const stdout String)
(assert (not (< (str.len stdout) 0)))
(assert (not (= (+ 0 (str.indexof stdout "\n" 0)) (- 1))))
(assert (not (< (+ 0 (str.indexof stdout "\n" 0)) 0)))
(assert (not (< (+ (+ 0 (str.indexof stdout "\n" 0)) 1) 0)))
(assert (not (< (str.len stdout) 0)))
(assert (not (< (str.len (str.substr stdout (+ (+ 0 (str.indexof stdout "\n" 0)) 1) (- (str.len stdout) (+ (+ 0 (str.indexof stdout "\n" 0)) 1)))) 0)))
(assert (not (= (+ 0 (str.indexof (str.substr stdout (+ (+ 0 (str.indexof stdout "\n" 0)) 1) (- (str.len stdout) (+ (+ 0 (str.indexof stdout "\n" 0)) 1))) "\n" 0)) (- 1))))
(assert (not (< (+ 0 (str.indexof (str.substr stdout (+ (+ 0 (str.indexof stdout "\n" 0)) 1) (- (str.len stdout) (+ (+ 0 (str.indexof stdout "\n" 0)) 1))) "\n" 0)) 0)))
(assert (not (< (+ (+ 0 (str.indexof (str.substr stdout (+ (+ 0 (str.indexof stdout "\n" 0)) 1) (- (str.len stdout) (+ (+ 0 (str.indexof stdout "\n" 0)) 1))) "\n" 0)) 1) 0)))
(assert (not (< (str.len (str.substr stdout (+ (+ 0 (str.indexof stdout "\n" 0)) 1) (- (str.len stdout) (+ (+ 0 (str.indexof stdout "\n" 0)) 1)))) 0)))
(assert (not (< (str.len (str.substr (str.substr stdout (+ (+ 0 (str.indexof stdout "\n" 0)) 1) (- (str.len stdout) (+ (+ 0 (str.indexof stdout "\n" 0)) 1))) (+ (+ 0 (str.indexof (str.substr stdout (+ (+ 0 (str.indexof stdout "\n" 0)) 1) (- (str.len stdout) (+ (+ 0 (str.indexof stdout "\n" 0)) 1))) "\n" 0)) 1) (- (str.len (str.substr stdout (+ (+ 0 (str.indexof stdout "\n" 0)) 1) (- (str.len stdout) (+ (+ 0 (str.indexof stdout "\n" 0)) 1)))) (+ (+ 0 (str.indexof (str.substr stdout (+ (+ 0 (str.indexof stdout "\n" 0)) 1) (- (str.len stdout) (+ (+ 0 (str.indexof stdout "\n" 0)) 1))) "\n" 0)) 1)))) 0)))
(assert (not (= (+ 0 (str.indexof (str.substr (str.substr stdout (+ (+ 0 (str.indexof stdout "\n" 0)) 1) (- (str.len stdout) (+ (+ 0 (str.indexof stdout "\n" 0)) 1))) (+ (+ 0 (str.indexof (str.substr stdout (+ (+ 0 (str.indexof stdout "\n" 0)) 1) (- (str.len stdout) (+ (+ 0 (str.indexof stdout "\n" 0)) 1))) "\n" 0)) 1) (- (str.len (str.substr stdout (+ (+ 0 (str.indexof stdout "\n" 0)) 1) (- (str.len stdout) (+ (+ 0 (str.indexof stdout "\n" 0)) 1)))) (+ (+ 0 (str.indexof (str.substr stdout (+ (+ 0 (str.indexof stdout "\n" 0)) 1) (- (str.len stdout) (+ (+ 0 (str.indexof stdout "\n" 0)) 1))) "\n" 0)) 1))) "\n" 0)) (- 1))))
(assert (not (< (+ 0 (str.indexof (str.substr (str.substr stdout (+ (+ 0 (str.indexof stdout "\n" 0)) 1) (- (str.len stdout) (+ (+ 0 (str.indexof stdout "\n" 0)) 1))) (+ (+ 0 (str.indexof (str.substr stdout (+ (+ 0 (str.indexof stdout "\n" 0)) 1) (- (str.len stdout) (+ (+ 0 (str.indexof stdout "\n" 0)) 1))) "\n" 0)) 1) (- (str.len (str.substr stdout (+ (+ 0 (str.indexof stdout "\n" 0)) 1) (- (str.len stdout) (+ (+ 0 (str.indexof stdout "\n" 0)) 1)))) (+ (+ 0 (str.indexof (str.substr stdout (+ (+ 0 (str.indexof stdout "\n" 0)) 1) (- (str.len stdout) (+ (+ 0 (str.indexof stdout "\n" 0)) 1))) "\n" 0)) 1))) "\n" 0)) 0)))
(assert (not (< (+ (+ 0 (str.indexof (str.substr (str.substr stdout (+ (+ 0 (str.indexof stdout "\n" 0)) 1) (- (str.len stdout) (+ (+ 0 (str.indexof stdout "\n" 0)) 1))) (+ (+ 0 (str.indexof (str.substr stdout (+ (+ 0 (str.indexof stdout "\n" 0)) 1) (- (str.len stdout) (+ (+ 0 (str.indexof stdout "\n" 0)) 1))) "\n" 0)) 1) (- (str.len (str.substr stdout (+ (+ 0 (str.indexof stdout "\n" 0)) 1) (- (str.len stdout) (+ (+ 0 (str.indexof stdout "\n" 0)) 1)))) (+ (+ 0 (str.indexof (str.substr stdout (+ (+ 0 (str.indexof stdout "\n" 0)) 1) (- (str.len stdout) (+ (+ 0 (str.indexof stdout "\n" 0)) 1))) "\n" 0)) 1))) "\n" 0)) 1) 0)))
(assert (not (< (str.len (str.substr (str.substr stdout (+ (+ 0 (str.indexof stdout "\n" 0)) 1) (- (str.len stdout) (+ (+ 0 (str.indexof stdout "\n" 0)) 1))) (+ (+ 0 (str.indexof (str.substr stdout (+ (+ 0 (str.indexof stdout "\n" 0)) 1) (- (str.len stdout) (+ (+ 0 (str.indexof stdout "\n" 0)) 1))) "\n" 0)) 1) (- (str.len (str.substr stdout (+ (+ 0 (str.indexof stdout "\n" 0)) 1) (- (str.len stdout) (+ (+ 0 (str.indexof stdout "\n" 0)) 1)))) (+ (+ 0 (str.indexof (str.substr stdout (+ (+ 0 (str.indexof stdout "\n" 0)) 1) (- (str.len stdout) (+ (+ 0 (str.indexof stdout "\n" 0)) 1))) "\n" 0)) 1)))) 0)))
(assert (not (< (str.len (str.substr (str.substr (str.substr stdout (+ (+ 0 (str.indexof stdout "\n" 0)) 1) (- (str.len stdout) (+ (+ 0 (str.indexof stdout "\n" 0)) 1))) (+ (+ 0 (str.indexof (str.substr stdout (+ (+ 0 (str.indexof stdout "\n" 0)) 1) (- (str.len stdout) (+ (+ 0 (str.indexof stdout "\n" 0)) 1))) "\n" 0)) 1) (- (str.len (str.substr stdout (+ (+ 0 (str.indexof stdout "\n" 0)) 1) (- (str.len stdout) (+ (+ 0 (str.indexof stdout "\n" 0)) 1)))) (+ (+ 0 (str.indexof (str.substr stdout (+ (+ 0 (str.indexof stdout "\n" 0)) 1) (- (str.len stdout) (+ (+ 0 (str.indexof stdout "\n" 0)) 1))) "\n" 0)) 1))) (+ (+ 0 (str.indexof (str.substr (str.substr stdout (+ (+ 0 (str.indexof stdout "\n" 0)) 1) (- (str.len stdout) (+ (+ 0 (str.indexof stdout "\n" 0)) 1))) (+ (+ 0 (str.indexof (str.substr stdout (+ (+ 0 (str.indexof stdout "\n" 0)) 1) (- (str.len stdout) (+ (+ 0 (str.indexof stdout "\n" 0)) 1))) "\n" 0)) 1) (- (str.len (str.substr stdout (+ (+ 0 (str.indexof stdout "\n" 0)) 1) (- (str.len stdout) (+ (+ 0 (str.indexof stdout "\n" 0)) 1)))) (+ (+ 0 (str.indexof (str.substr stdout (+ (+ 0 (str.indexof stdout "\n" 0)) 1) (- (str.len stdout) (+ (+ 0 (str.indexof stdout "\n" 0)) 1))) "\n" 0)) 1))) "\n" 0)) 1) (- (str.len (str.substr (str.substr stdout (+ (+ 0 (str.indexof stdout "\n" 0)) 1) (- (str.len stdout) (+ (+ 0 (str.indexof stdout "\n" 0)) 1))) (+ (+ 0 (str.indexof (str.substr stdout (+ (+ 0 (str.indexof stdout "\n" 0)) 1) (- (str.len stdout) (+ (+ 0 (str.indexof stdout "\n" 0)) 1))) "\n" 0)) 1) (- (str.len (str.substr stdout (+ (+ 0 (str.indexof stdout "\n" 0)) 1) (- (str.len stdout) (+ (+ 0 (str.indexof stdout "\n" 0)) 1)))) (+ (+ 0 (str.indexof (str.substr stdout (+ (+ 0 (str.indexof stdout "\n" 0)) 1) (- (str.len stdout) (+ (+ 0 (str.indexof stdout "\n" 0)) 1))) "\n" 0)) 1)))) (+ (+ 0 (str.indexof (str.substr (str.substr stdout (+ (+ 0 (str.indexof stdout "\n" 0)) 1) (- (str.len stdout) (+ (+ 0 (str.indexof stdout "\n" 0)) 1))) (+ (+ 0 (str.indexof (str.substr stdout (+ (+ 0 (str.indexof stdout "\n" 0)) 1) (- (str.len stdout) (+ (+ 0 (str.indexof stdout "\n" 0)) 1))) "\n" 0)) 1) (- (str.len (str.substr stdout (+ (+ 0 (str.indexof stdout "\n" 0)) 1) (- (str.len stdout) (+ (+ 0 (str.indexof stdout "\n" 0)) 1)))) (+ (+ 0 (str.indexof (str.substr stdout (+ (+ 0 (str.indexof stdout "\n" 0)) 1) (- (str.len stdout) (+ (+ 0 (str.indexof stdout "\n" 0)) 1))) "\n" 0)) 1))) "\n" 0)) 1)))) 0)))
(assert (= (+ 0 (str.indexof (str.substr (str.substr (str.substr stdout (+ (+ 0 (str.indexof stdout "\n" 0)) 1) (- (str.len stdout) (+ (+ 0 (str.indexof stdout "\n" 0)) 1))) (+ (+ 0 (str.indexof (str.substr stdout (+ (+ 0 (str.indexof stdout "\n" 0)) 1) (- (str.len stdout) (+ (+ 0 (str.indexof stdout "\n" 0)) 1))) "\n" 0)) 1) (- (str.len (str.substr stdout (+ (+ 0 (str.indexof stdout "\n" 0)) 1) (- (str.len stdout) (+ (+ 0 (str.indexof stdout "\n" 0)) 1)))) (+ (+ 0 (str.indexof (str.substr stdout (+ (+ 0 (str.indexof stdout "\n" 0)) 1) (- (str.len stdout) (+ (+ 0 (str.indexof stdout "\n" 0)) 1))) "\n" 0)) 1))) (+ (+ 0 (str.indexof (str.substr (str.substr stdout (+ (+ 0 (str.indexof stdout "\n" 0)) 1) (- (str.len stdout) (+ (+ 0 (str.indexof stdout "\n" 0)) 1))) (+ (+ 0 (str.indexof (str.substr stdout (+ (+ 0 (str.indexof stdout "\n" 0)) 1) (- (str.len stdout) (+ (+ 0 (str.indexof stdout "\n" 0)) 1))) "\n" 0)) 1) (- (str.len (str.substr stdout (+ (+ 0 (str.indexof stdout "\n" 0)) 1) (- (str.len stdout) (+ (+ 0 (str.indexof stdout "\n" 0)) 1)))) (+ (+ 0 (str.indexof (str.substr stdout (+ (+ 0 (str.indexof stdout "\n" 0)) 1) (- (str.len stdout) (+ (+ 0 (str.indexof stdout "\n" 0)) 1))) "\n" 0)) 1))) "\n" 0)) 1) (- (str.len (str.substr (str.substr stdout (+ (+ 0 (str.indexof stdout "\n" 0)) 1) (- (str.len stdout) (+ (+ 0 (str.indexof stdout "\n" 0)) 1))) (+ (+ 0 (str.indexof (str.substr stdout (+ (+ 0 (str.indexof stdout "\n" 0)) 1) (- (str.len stdout) (+ (+ 0 (str.indexof stdout "\n" 0)) 1))) "\n" 0)) 1) (- (str.len (str.substr stdout (+ (+ 0 (str.indexof stdout "\n" 0)) 1) (- (str.len stdout) (+ (+ 0 (str.indexof stdout "\n" 0)) 1)))) (+ (+ 0 (str.indexof (str.substr stdout (+ (+ 0 (str.indexof stdout "\n" 0)) 1) (- (str.len stdout) (+ (+ 0 (str.indexof stdout "\n" 0)) 1))) "\n" 0)) 1)))) (+ (+ 0 (str.indexof (str.substr (str.substr stdout (+ (+ 0 (str.indexof stdout "\n" 0)) 1) (- (str.len stdout) (+ (+ 0 (str.indexof stdout "\n" 0)) 1))) (+ (+ 0 (str.indexof (str.substr stdout (+ (+ 0 (str.indexof stdout "\n" 0)) 1) (- (str.len stdout) (+ (+ 0 (str.indexof stdout "\n" 0)) 1))) "\n" 0)) 1) (- (str.len (str.substr stdout (+ (+ 0 (str.indexof stdout "\n" 0)) 1) (- (str.len stdout) (+ (+ 0 (str.indexof stdout "\n" 0)) 1)))) (+ (+ 0 (str.indexof (str.substr stdout (+ (+ 0 (str.indexof stdout "\n" 0)) 1) (- (str.len stdout) (+ (+ 0 (str.indexof stdout "\n" 0)) 1))) "\n" 0)) 1))) "\n" 0)) 1))) "\n" 0)) (- 1)))
(assert (not (< (str.len (str.substr stdout 0 (- (+ 0 (str.indexof stdout "\n" 0)) 0))) 0)))
(assert (not (str.prefixof "where <command> is one of:" (str.substr stdout 0 (- (+ 0 (str.indexof stdout "\n" 0)) 0)))))
(assert (not (< (str.len (str.substr (str.substr stdout (+ (+ 0 (str.indexof stdout "\n" 0)) 1) (- (str.len stdout) (+ (+ 0 (str.indexof stdout "\n" 0)) 1))) 0 (- (+ 0 (str.indexof (str.substr stdout (+ (+ 0 (str.indexof stdout "\n" 0)) 1) (- (str.len stdout) (+ (+ 0 (str.indexof stdout "\n" 0)) 1))) "\n" 0)) 0))) 0)))
(assert (str.prefixof "where <command> is one of:" (str.substr (str.substr stdout (+ (+ 0 (str.indexof stdout "\n" 0)) 1) (- (str.len stdout) (+ (+ 0 (str.indexof stdout "\n" 0)) 1))) 0 (- (+ 0 (str.indexof (str.substr stdout (+ (+ 0 (str.indexof stdout "\n" 0)) 1) (- (str.len stdout) (+ (+ 0 (str.indexof stdout "\n" 0)) 1))) "\n" 0)) 0))))
(assert (not (< (str.len (str.substr (str.substr (str.substr stdout (+ (+ 0 (str.indexof stdout "\n" 0)) 1) (- (str.len stdout) (+ (+ 0 (str.indexof stdout "\n" 0)) 1))) (+ (+ 0 (str.indexof (str.substr stdout (+ (+ 0 (str.indexof stdout "\n" 0)) 1) (- (str.len stdout) (+ (+ 0 (str.indexof stdout "\n" 0)) 1))) "\n" 0)) 1) (- (str.len (str.substr stdout (+ (+ 0 (str.indexof stdout "\n" 0)) 1) (- (str.len stdout) (+ (+ 0 (str.indexof stdout "\n" 0)) 1)))) (+ (+ 0 (str.indexof (str.substr stdout (+ (+ 0 (str.indexof stdout "\n" 0)) 1) (- (str.len stdout) (+ (+ 0 (str.indexof stdout "\n" 0)) 1))) "\n" 0)) 1))) 0 (- (+ 0 (str.indexof (str.substr (str.substr stdout (+ (+ 0 (str.indexof stdout "\n" 0)) 1) (- (str.len stdout) (+ (+ 0 (str.indexof stdout "\n" 0)) 1))) (+ (+ 0 (str.indexof (str.substr stdout (+ (+ 0 (str.indexof stdout "\n" 0)) 1) (- (str.len stdout) (+ (+ 0 (str.indexof stdout "\n" 0)) 1))) "\n" 0)) 1) (- (str.len (str.substr stdout (+ (+ 0 (str.indexof stdout "\n" 0)) 1) (- (str.len stdout) (+ (+ 0 (str.indexof stdout "\n" 0)) 1)))) (+ (+ 0 (str.indexof (str.substr stdout (+ (+ 0 (str.indexof stdout "\n" 0)) 1) (- (str.len stdout) (+ (+ 0 (str.indexof stdout "\n" 0)) 1))) "\n" 0)) 1))) "\n" 0)) 0))) 0)))
(assert (str.prefixof "where <command> is one of:" (str.substr (str.substr (str.substr stdout (+ (+ 0 (str.indexof stdout "\n" 0)) 1) (- (str.len stdout) (+ (+ 0 (str.indexof stdout "\n" 0)) 1))) (+ (+ 0 (str.indexof (str.substr stdout (+ (+ 0 (str.indexof stdout "\n" 0)) 1) (- (str.len stdout) (+ (+ 0 (str.indexof stdout "\n" 0)) 1))) "\n" 0)) 1) (- (str.len (str.substr stdout (+ (+ 0 (str.indexof stdout "\n" 0)) 1) (- (str.len stdout) (+ (+ 0 (str.indexof stdout "\n" 0)) 1)))) (+ (+ 0 (str.indexof (str.substr stdout (+ (+ 0 (str.indexof stdout "\n" 0)) 1) (- (str.len stdout) (+ (+ 0 (str.indexof stdout "\n" 0)) 1))) "\n" 0)) 1))) 0 (- (+ 0 (str.indexof (str.substr (str.substr stdout (+ (+ 0 (str.indexof stdout "\n" 0)) 1) (- (str.len stdout) (+ (+ 0 (str.indexof stdout "\n" 0)) 1))) (+ (+ 0 (str.indexof (str.substr stdout (+ (+ 0 (str.indexof stdout "\n" 0)) 1) (- (str.len stdout) (+ (+ 0 (str.indexof stdout "\n" 0)) 1))) "\n" 0)) 1) (- (str.len (str.substr stdout (+ (+ 0 (str.indexof stdout "\n" 0)) 1) (- (str.len stdout) (+ (+ 0 (str.indexof stdout "\n" 0)) 1)))) (+ (+ 0 (str.indexof (str.substr stdout (+ (+ 0 (str.indexof stdout "\n" 0)) 1) (- (str.len stdout) (+ (+ 0 (str.indexof stdout "\n" 0)) 1))) "\n" 0)) 1))) "\n" 0)) 0))))
(assert (not (< (str.len (str.substr (str.substr (str.substr stdout (+ (+ 0 (str.indexof stdout "\n" 0)) 1) (- (str.len stdout) (+ (+ 0 (str.indexof stdout "\n" 0)) 1))) (+ (+ 0 (str.indexof (str.substr stdout (+ (+ 0 (str.indexof stdout "\n" 0)) 1) (- (str.len stdout) (+ (+ 0 (str.indexof stdout "\n" 0)) 1))) "\n" 0)) 1) (- (str.len (str.substr stdout (+ (+ 0 (str.indexof stdout "\n" 0)) 1) (- (str.len stdout) (+ (+ 0 (str.indexof stdout "\n" 0)) 1)))) (+ (+ 0 (str.indexof (str.substr stdout (+ (+ 0 (str.indexof stdout "\n" 0)) 1) (- (str.len stdout) (+ (+ 0 (str.indexof stdout "\n" 0)) 1))) "\n" 0)) 1))) (+ (+ 0 (str.indexof (str.substr (str.substr stdout (+ (+ 0 (str.indexof stdout "\n" 0)) 1) (- (str.len stdout) (+ (+ 0 (str.indexof stdout "\n" 0)) 1))) (+ (+ 0 (str.indexof (str.substr stdout (+ (+ 0 (str.indexof stdout "\n" 0)) 1) (- (str.len stdout) (+ (+ 0 (str.indexof stdout "\n" 0)) 1))) "\n" 0)) 1) (- (str.len (str.substr stdout (+ (+ 0 (str.indexof stdout "\n" 0)) 1) (- (str.len stdout) (+ (+ 0 (str.indexof stdout "\n" 0)) 1)))) (+ (+ 0 (str.indexof (str.substr stdout (+ (+ 0 (str.indexof stdout "\n" 0)) 1) (- (str.len stdout) (+ (+ 0 (str.indexof stdout "\n" 0)) 1))) "\n" 0)) 1))) "\n" 0)) 1) (- (str.len (str.substr (str.substr stdout (+ (+ 0 (str.indexof stdout "\n" 0)) 1) (- (str.len stdout) (+ (+ 0 (str.indexof stdout "\n" 0)) 1))) (+ (+ 0 (str.indexof (str.substr stdout (+ (+ 0 (str.indexof stdout "\n" 0)) 1) (- (str.len stdout) (+ (+ 0 (str.indexof stdout "\n" 0)) 1))) "\n" 0)) 1) (- (str.len (str.substr stdout (+ (+ 0 (str.indexof stdout "\n" 0)) 1) (- (str.len stdout) (+ (+ 0 (str.indexof stdout "\n" 0)) 1)))) (+ (+ 0 (str.indexof (str.substr stdout (+ (+ 0 (str.indexof stdout "\n" 0)) 1) (- (str.len stdout) (+ (+ 0 (str.indexof stdout "\n" 0)) 1))) "\n" 0)) 1)))) (+ (+ 0 (str.indexof (str.substr (str.substr stdout (+ (+ 0 (str.indexof stdout "\n" 0)) 1) (- (str.len stdout) (+ (+ 0 (str.indexof stdout "\n" 0)) 1))) (+ (+ 0 (str.indexof (str.substr stdout (+ (+ 0 (str.indexof stdout "\n" 0)) 1) (- (str.len stdout) (+ (+ 0 (str.indexof stdout "\n" 0)) 1))) "\n" 0)) 1) (- (str.len (str.substr stdout (+ (+ 0 (str.indexof stdout "\n" 0)) 1) (- (str.len stdout) (+ (+ 0 (str.indexof stdout "\n" 0)) 1)))) (+ (+ 0 (str.indexof (str.substr stdout (+ (+ 0 (str.indexof stdout "\n" 0)) 1) (- (str.len stdout) (+ (+ 0 (str.indexof stdout "\n" 0)) 1))) "\n" 0)) 1))) "\n" 0)) 1)))) 0)))
(assert (str.prefixof "where <command> is one of:" (str.substr (str.substr (str.substr stdout (+ (+ 0 (str.indexof stdout "\n" 0)) 1) (- (str.len stdout) (+ (+ 0 (str.indexof stdout "\n" 0)) 1))) (+ (+ 0 (str.indexof (str.substr stdout (+ (+ 0 (str.indexof stdout "\n" 0)) 1) (- (str.len stdout) (+ (+ 0 (str.indexof stdout "\n" 0)) 1))) "\n" 0)) 1) (- (str.len (str.substr stdout (+ (+ 0 (str.indexof stdout "\n" 0)) 1) (- (str.len stdout) (+ (+ 0 (str.indexof stdout "\n" 0)) 1)))) (+ (+ 0 (str.indexof (str.substr stdout (+ (+ 0 (str.indexof stdout "\n" 0)) 1) (- (str.len stdout) (+ (+ 0 (str.indexof stdout "\n" 0)) 1))) "\n" 0)) 1))) (+ (+ 0 (str.indexof (str.substr (str.substr stdout (+ (+ 0 (str.indexof stdout "\n" 0)) 1) (- (str.len stdout) (+ (+ 0 (str.indexof stdout "\n" 0)) 1))) (+ (+ 0 (str.indexof (str.substr stdout (+ (+ 0 (str.indexof stdout "\n" 0)) 1) (- (str.len stdout) (+ (+ 0 (str.indexof stdout "\n" 0)) 1))) "\n" 0)) 1) (- (str.len (str.substr stdout (+ (+ 0 (str.indexof stdout "\n" 0)) 1) (- (str.len stdout) (+ (+ 0 (str.indexof stdout "\n" 0)) 1)))) (+ (+ 0 (str.indexof (str.substr stdout (+ (+ 0 (str.indexof stdout "\n" 0)) 1) (- (str.len stdout) (+ (+ 0 (str.indexof stdout "\n" 0)) 1))) "\n" 0)) 1))) "\n" 0)) 1) (- (str.len (str.substr (str.substr stdout (+ (+ 0 (str.indexof stdout "\n" 0)) 1) (- (str.len stdout) (+ (+ 0 (str.indexof stdout "\n" 0)) 1))) (+ (+ 0 (str.indexof (str.substr stdout (+ (+ 0 (str.indexof stdout "\n" 0)) 1) (- (str.len stdout) (+ (+ 0 (str.indexof stdout "\n" 0)) 1))) "\n" 0)) 1) (- (str.len (str.substr stdout (+ (+ 0 (str.indexof stdout "\n" 0)) 1) (- (str.len stdout) (+ (+ 0 (str.indexof stdout "\n" 0)) 1)))) (+ (+ 0 (str.indexof (str.substr stdout (+ (+ 0 (str.indexof stdout "\n" 0)) 1) (- (str.len stdout) (+ (+ 0 (str.indexof stdout "\n" 0)) 1))) "\n" 0)) 1)))) (+ (+ 0 (str.indexof (str.substr (str.substr stdout (+ (+ 0 (str.indexof stdout "\n" 0)) 1) (- (str.len stdout) (+ (+ 0 (str.indexof stdout "\n" 0)) 1))) (+ (+ 0 (str.indexof (str.substr stdout (+ (+ 0 (str.indexof stdout "\n" 0)) 1) (- (str.len stdout) (+ (+ 0 (str.indexof stdout "\n" 0)) 1))) "\n" 0)) 1) (- (str.len (str.substr stdout (+ (+ 0 (str.indexof stdout "\n" 0)) 1) (- (str.len stdout) (+ (+ 0 (str.indexof stdout "\n" 0)) 1)))) (+ (+ 0 (str.indexof (str.substr stdout (+ (+ 0 (str.indexof stdout "\n" 0)) 1) (- (str.len stdout) (+ (+ 0 (str.indexof stdout "\n" 0)) 1))) "\n" 0)) 1))) "\n" 0)) 1)))))
(check-sat)
(get-value (stdout))
